(declare-fun or.cond_19_57 () (_ BitVec 1))
(declare-fun cmp30.i.i_19_55 () (_ BitVec 1))
(declare-fun spec.select_19_53 () (_ BitVec 1))
(declare-fun src_reg1.sroa.42.0.copyload_19_38 () (_ BitVec 64))
(declare-fun cmp9.i.i_19_51 () (_ BitVec 1))
(declare-fun or.cond31_19_50 () (_ BitVec 1))
(declare-fun src_reg1.sroa.65.0.copyload_19_42 () (_ BitVec 32))
(declare-fun src_reg1.sroa.57.0.copyload_19_41 () (_ BitVec 32))
(declare-fun cmp6.i.i_19_48 () (_ BitVec 1))
(declare-fun tobool.not.i.i.i_19_47 () (_ BitVec 1))
(declare-fun src_reg1.sroa.54.0.copyload_19_40 () (_ BitVec 32))
(declare-fun src_reg1.sroa.50.0.copyload_19_39 () (_ BitVec 32))
(declare-fun and6.i.i.i.i.i_19_45 () (_ BitVec 64))
(declare-fun src_reg1.sroa.13.0.copyload_19_43 () (_ BitVec 64))
(declare-fun src_reg_19_21 () (_ BitVec 64))
(declare-fun src_reg_19_29 () (_ BitVec 32))
(declare-fun src_reg_19_28 () (_ BitVec 32))
(declare-fun src_reg_19_27 () (_ BitVec 32))
(declare-fun src_reg_19_26 () (_ BitVec 32))
(declare-fun src_reg_19_25 () (_ BitVec 64))
(declare-fun src_reg_19_35 () (_ BitVec 8))
(declare-fun src_reg_19_34 () (_ BitVec 32))
(declare-fun src_reg_19_33 () (_ BitVec 32))
(declare-fun src_reg_19_32 () (_ BitVec 32))
(declare-fun src_reg_19_31 () (_ BitVec 32))
(declare-fun src_reg_19_30 () (_ BitVec 32))
(declare-fun src_reg_19_24 () (_ BitVec 64))
(declare-fun src_reg_19_23 () (_ BitVec 64))
(declare-fun src_reg_19_22 () (_ BitVec 64))
(declare-fun src_reg_19_20 () (_ BitVec 64))
(declare-fun src_reg_19_19 () (_ BitVec 32))
(declare-fun src_reg_19_18 () (_ BitVec 32))
(declare-fun dst_reg_19_17 () (_ BitVec 8))
(declare-fun dst_reg_19_16 () (_ BitVec 32))
(declare-fun dst_reg_19_15 () (_ BitVec 32))
(declare-fun dst_reg_19_14 () (_ BitVec 32))
(declare-fun dst_reg_19_13 () (_ BitVec 32))
(declare-fun dst_reg_19_12 () (_ BitVec 32))
(declare-fun dst_reg_19_11 () (_ BitVec 32))
(declare-fun dst_reg_19_10 () (_ BitVec 32))
(declare-fun dst_reg_19_9 () (_ BitVec 32))
(declare-fun dst_reg_19_8 () (_ BitVec 32))
(declare-fun dst_reg_19_7 () (_ BitVec 64))
(declare-fun dst_reg_19_6 () (_ BitVec 64))
(declare-fun dst_reg_19_5 () (_ BitVec 64))
(declare-fun dst_reg_19_4 () (_ BitVec 64))
(declare-fun dst_reg_19_3 () (_ BitVec 64))
(declare-fun dst_reg_19_2 () (_ BitVec 64))
(declare-fun dst_reg_19_1 () (_ BitVec 32))
(declare-fun dst_reg_19_0 () (_ BitVec 32))
(declare-fun src_reg_19_242 () (_ BitVec 8))
(declare-fun src_reg_19_206 () (_ BitVec 8))
(declare-fun src_reg_19_241 () (_ BitVec 32))
(declare-fun src_reg_19_205 () (_ BitVec 32))
(declare-fun src_reg_19_240 () (_ BitVec 32))
(declare-fun src_reg_19_204 () (_ BitVec 32))
(declare-fun src_reg_19_239 () (_ BitVec 32))
(declare-fun src_reg_19_203 () (_ BitVec 32))
(declare-fun src_reg_19_238 () (_ BitVec 32))
(declare-fun src_reg_19_202 () (_ BitVec 32))
(declare-fun src_reg_19_237 () (_ BitVec 32))
(declare-fun src_reg_19_201 () (_ BitVec 32))
(declare-fun src_reg_19_236 () (_ BitVec 32))
(declare-fun src_reg_19_200 () (_ BitVec 32))
(declare-fun src_reg_19_235 () (_ BitVec 32))
(declare-fun src_reg_19_199 () (_ BitVec 32))
(declare-fun src_reg_19_234 () (_ BitVec 32))
(declare-fun src_reg_19_198 () (_ BitVec 32))
(declare-fun src_reg_19_233 () (_ BitVec 32))
(declare-fun src_reg_19_197 () (_ BitVec 32))
(declare-fun src_reg_19_232 () (_ BitVec 64))
(declare-fun src_reg_19_196 () (_ BitVec 64))
(declare-fun src_reg_19_231 () (_ BitVec 64))
(declare-fun src_reg_19_195 () (_ BitVec 64))
(declare-fun src_reg_19_230 () (_ BitVec 64))
(declare-fun src_reg_19_194 () (_ BitVec 64))
(declare-fun src_reg_19_229 () (_ BitVec 64))
(declare-fun src_reg_19_193 () (_ BitVec 64))
(declare-fun src_reg_19_228 () (_ BitVec 64))
(declare-fun src_reg_19_192 () (_ BitVec 64))
(declare-fun src_reg_19_227 () (_ BitVec 64))
(declare-fun src_reg_19_191 () (_ BitVec 64))
(declare-fun src_reg_19_226 () (_ BitVec 32))
(declare-fun src_reg_19_190 () (_ BitVec 32))
(declare-fun src_reg_19_225 () (_ BitVec 32))
(declare-fun src_reg_19_189 () (_ BitVec 32))
(declare-fun dst_reg_19_224 () (_ BitVec 8))
(declare-fun dst_reg_19_188 () (_ BitVec 8))
(declare-fun dst_reg_19_223 () (_ BitVec 32))
(declare-fun dst_reg_19_187 () (_ BitVec 32))
(declare-fun dst_reg_19_222 () (_ BitVec 32))
(declare-fun dst_reg_19_186 () (_ BitVec 32))
(declare-fun dst_reg_19_221 () (_ BitVec 32))
(declare-fun dst_reg_19_185 () (_ BitVec 32))
(declare-fun dst_reg_19_220 () (_ BitVec 32))
(declare-fun dst_reg_19_184 () (_ BitVec 32))
(declare-fun dst_reg_19_219 () (_ BitVec 32))
(declare-fun dst_reg_19_183 () (_ BitVec 32))
(declare-fun dst_reg_19_218 () (_ BitVec 32))
(declare-fun dst_reg_19_182 () (_ BitVec 32))
(declare-fun dst_reg_19_217 () (_ BitVec 32))
(declare-fun dst_reg_19_181 () (_ BitVec 32))
(declare-fun dst_reg_19_216 () (_ BitVec 32))
(declare-fun dst_reg_19_180 () (_ BitVec 32))
(declare-fun dst_reg_19_215 () (_ BitVec 32))
(declare-fun dst_reg_19_179 () (_ BitVec 32))
(declare-fun dst_reg_19_214 () (_ BitVec 64))
(declare-fun dst_reg_19_178 () (_ BitVec 64))
(declare-fun dst_reg_19_213 () (_ BitVec 64))
(declare-fun dst_reg_19_177 () (_ BitVec 64))
(declare-fun dst_reg_19_212 () (_ BitVec 64))
(declare-fun dst_reg_19_176 () (_ BitVec 64))
(declare-fun dst_reg_19_211 () (_ BitVec 64))
(declare-fun dst_reg_19_175 () (_ BitVec 64))
(declare-fun dst_reg_19_210 () (_ BitVec 64))
(declare-fun dst_reg_19_174 () (_ BitVec 64))
(declare-fun dst_reg_19_209 () (_ BitVec 64))
(declare-fun dst_reg_19_173 () (_ BitVec 64))
(declare-fun dst_reg_19_208 () (_ BitVec 32))
(declare-fun dst_reg_19_172 () (_ BitVec 32))
(declare-fun dst_reg_19_207 () (_ BitVec 32))
(declare-fun dst_reg_19_171 () (_ BitVec 32))
(declare-fun dst_reg_19_148 () (_ BitVec 8))
(declare-fun dst_reg_19_147 () (_ BitVec 32))
(declare-fun dst_reg_19_146 () (_ BitVec 32))
(declare-fun dst_reg_19_145 () (_ BitVec 32))
(declare-fun dst_reg_19_144 () (_ BitVec 32))
(declare-fun dst_reg_19_143 () (_ BitVec 32))
(declare-fun dst_reg_19_142 () (_ BitVec 32))
(declare-fun dst_reg_19_141 () (_ BitVec 32))
(declare-fun dst_reg_19_140 () (_ BitVec 32))
(declare-fun dst_reg_19_139 () (_ BitVec 32))
(declare-fun dst_reg_19_138 () (_ BitVec 64))
(declare-fun dst_reg_19_137 () (_ BitVec 64))
(declare-fun .sink.i.i995.i_19_169 () (_ BitVec 64))
(declare-fun dst_reg_19_135 () (_ BitVec 64))
(declare-fun dst_reg_19_134 () (_ BitVec 64))
(declare-fun dst_reg_19_133 () (_ BitVec 64))
(declare-fun dst_reg_19_132 () (_ BitVec 32))
(declare-fun dst_reg_19_131 () (_ BitVec 32))
(declare-fun src_reg_19_166 () (_ BitVec 8))
(declare-fun src_reg_19_165 () (_ BitVec 32))
(declare-fun src_reg_19_164 () (_ BitVec 32))
(declare-fun src_reg_19_163 () (_ BitVec 32))
(declare-fun src_reg_19_162 () (_ BitVec 32))
(declare-fun src_reg_19_161 () (_ BitVec 32))
(declare-fun src_reg_19_160 () (_ BitVec 32))
(declare-fun src_reg_19_159 () (_ BitVec 32))
(declare-fun src_reg_19_158 () (_ BitVec 32))
(declare-fun src_reg_19_157 () (_ BitVec 32))
(declare-fun src_reg_19_156 () (_ BitVec 64))
(declare-fun src_reg_19_155 () (_ BitVec 64))
(declare-fun src_reg_19_154 () (_ BitVec 64))
(declare-fun src_reg_19_153 () (_ BitVec 64))
(declare-fun src_reg_19_152 () (_ BitVec 64))
(declare-fun src_reg_19_151 () (_ BitVec 64))
(declare-fun src_reg_19_150 () (_ BitVec 32))
(declare-fun src_reg_19_149 () (_ BitVec 32))
(declare-fun or.cond32_19_121 () (_ BitVec 1))
(declare-fun cmp.i1.i.i.i_19_119 () (_ BitVec 1))
(declare-fun cmp.i.i.i990.i_19_117 () (_ BitVec 1))
(declare-fun conv7.i.i747.i_19_102 () (_ BitVec 32))
(declare-fun conv.i.i740.i_19_98 () (_ BitVec 32))
(declare-fun cond36.i.i760.i_19_109 () (_ BitVec 32))
(declare-fun conv1.i.i.i_19_115 () (_ BitVec 64))
(declare-fun cond24.i.i754.i_19_105 () (_ BitVec 32))
(declare-fun conv.i.i983.i_19_114 () (_ BitVec 64))
(declare-fun shr5.i.i719.i_19_86 () (_ BitVec 64))
(declare-fun and6.i.i.i978.i_19_113 () (_ BitVec 64))
(declare-fun shr.i.i718.i_19_85 () (_ BitVec 64))
(declare-fun and.i.i.i977.i_19_111 () (_ BitVec 64))
(declare-fun conv29.i.i758.i_19_107 () (_ BitVec 32))
(declare-fun shr5.i.i_19_90 () (_ BitVec 32))
(declare-fun cmp31.i.i759.i_19_108 () (_ BitVec 1))
(declare-fun and.i.i.i.i732.i30_19_106 () (_ BitVec 64))
(declare-fun conv17.i.i752.i_19_103 () (_ BitVec 32))
(declare-fun shr.i.i_19_88 () (_ BitVec 32))
(declare-fun cmp19.i.i753.i_19_104 () (_ BitVec 1))
(declare-fun or6.i.i746.i_19_101 () (_ BitVec 64))
(declare-fun and5.i.i745.i_19_100 () (_ BitVec 64))
(declare-fun or.i.i739.i_19_97 () (_ BitVec 64))
(declare-fun and.i.i738.i_19_96 () (_ BitVec 64))
(declare-fun i21.i723.i_19_89 () (_ BitVec 32))
(declare-fun i20.i722.i_19_87 () (_ BitVec 32))
(declare-fun sh_prom.i.i717.i_19_84 () (_ BitVec 64))
(declare-fun and6.i.i.i707.i_19_79 () (_ BitVec 64))
(declare-fun and.i.i.i706.i_19_77 () (_ BitVec 64))
(declare-fun i_19_83 () (_ BitVec 32))
(declare-fun i13.i705.i_19_75 () (_ BitVec 64))
(declare-fun i11.i703.i_19_74 () (_ BitVec 64))
(declare-fun sext33_19_127 () (_ BitVec 64))
(declare-fun conv8.i.i.i_19_129 () (_ BitVec 64))
(declare-fun sext_19_123 () (_ BitVec 64))
(declare-fun conv6.i.i.i_19_125 () (_ BitVec 64))
(declare-fun if.then.i.i993.i_zext_32_to_64.exit.i_19_168 () Bool)
(declare-fun if.else.i.i994.i_zext_32_to_64.exit.i_19_167 () Bool)
(declare-fun dst_reg_19_136 () (_ BitVec 64))
(assert (let ((a!1 (or (and (= or.cond32_19_121 #b0) (= or.cond_19_57 #b1))
               (and (= or.cond32_19_121 #b1) (= or.cond_19_57 #b1))))
      (a!2 (and (=> if.else.i.i994.i_zext_32_to_64.exit.i_19_167
                    (= .sink.i.i995.i_19_169 #x00000000ffffffff))
                (=> if.then.i.i993.i_zext_32_to_64.exit.i_19_168
                    (= .sink.i.i995.i_19_169 conv8.i.i.i_19_129))
                (=> (and (= or.cond32_19_121 #b1) (= or.cond_19_57 #b1))
                    (and (= #x00000001 src_reg_19_149)
                         (= src_reg_19_19 src_reg_19_150)
                         (= src_reg_19_20 src_reg_19_151)
                         (= src_reg_19_21 src_reg_19_152)
                         (= src_reg_19_22 src_reg_19_153)
                         (= src_reg_19_23 src_reg_19_154)
                         (= src_reg_19_24 src_reg_19_155)
                         (= src_reg_19_25 src_reg_19_156)
                         (= src_reg_19_26 src_reg_19_157)
                         (= src_reg_19_27 src_reg_19_158)
                         (= src_reg_19_28 src_reg_19_159)
                         (= src_reg_19_29 src_reg_19_160)
                         (= src_reg_19_30 src_reg_19_161)
                         (= src_reg_19_31 src_reg_19_162)
                         (= src_reg_19_32 src_reg_19_163)
                         (= src_reg_19_33 src_reg_19_164)
                         (= src_reg_19_34 src_reg_19_165)
                         (= src_reg_19_35 src_reg_19_166)
                         (= #x00000001 dst_reg_19_131)
                         (= dst_reg_19_1 dst_reg_19_132)
                         (= and.i.i.i977.i_19_111 dst_reg_19_133)
                         (= and6.i.i.i978.i_19_113 dst_reg_19_134)
                         (= conv6.i.i.i_19_125 dst_reg_19_135)
                         (= #x7fffffffffffffff dst_reg_19_136)
                         (= conv.i.i983.i_19_114 dst_reg_19_137)
                         (= conv1.i.i.i_19_115 dst_reg_19_138)
                         (= conv.i.i740.i_19_98 dst_reg_19_139)
                         (= conv7.i.i747.i_19_102 dst_reg_19_140)
                         (= cond24.i.i754.i_19_105 dst_reg_19_141)
                         (= cond36.i.i760.i_19_109 dst_reg_19_142)
                         (= dst_reg_19_12 dst_reg_19_143)
                         (= dst_reg_19_13 dst_reg_19_144)
                         (= dst_reg_19_14 dst_reg_19_145)
                         (= dst_reg_19_15 dst_reg_19_146)
                         (= dst_reg_19_16 dst_reg_19_147)
                         (= dst_reg_19_17 dst_reg_19_148)))
                (=> (and (= or.cond32_19_121 #b0) (= or.cond_19_57 #b1))
                    (and (= #x00000001 src_reg_19_149)
                         (= src_reg_19_19 src_reg_19_150)
                         (= src_reg_19_20 src_reg_19_151)
                         (= src_reg_19_21 src_reg_19_152)
                         (= src_reg_19_22 src_reg_19_153)
                         (= src_reg_19_23 src_reg_19_154)
                         (= src_reg_19_24 src_reg_19_155)
                         (= src_reg_19_25 src_reg_19_156)
                         (= src_reg_19_26 src_reg_19_157)
                         (= src_reg_19_27 src_reg_19_158)
                         (= src_reg_19_28 src_reg_19_159)
                         (= src_reg_19_29 src_reg_19_160)
                         (= src_reg_19_30 src_reg_19_161)
                         (= src_reg_19_31 src_reg_19_162)
                         (= src_reg_19_32 src_reg_19_163)
                         (= src_reg_19_33 src_reg_19_164)
                         (= src_reg_19_34 src_reg_19_165)
                         (= src_reg_19_35 src_reg_19_166)
                         (= #x00000001 dst_reg_19_131)
                         (= dst_reg_19_1 dst_reg_19_132)
                         (= and.i.i.i977.i_19_111 dst_reg_19_133)
                         (= and6.i.i.i978.i_19_113 dst_reg_19_134)
                         (= #x0000000000000000 dst_reg_19_135)
                         (= #x7fffffffffffffff dst_reg_19_136)
                         (= conv.i.i983.i_19_114 dst_reg_19_137)
                         (= conv1.i.i.i_19_115 dst_reg_19_138)
                         (= conv.i.i740.i_19_98 dst_reg_19_139)
                         (= conv7.i.i747.i_19_102 dst_reg_19_140)
                         (= cond24.i.i754.i_19_105 dst_reg_19_141)
                         (= cond36.i.i760.i_19_109 dst_reg_19_142)
                         (= dst_reg_19_12 dst_reg_19_143)
                         (= dst_reg_19_13 dst_reg_19_144)
                         (= dst_reg_19_14 dst_reg_19_145)
                         (= dst_reg_19_15 dst_reg_19_146)
                         (= dst_reg_19_16 dst_reg_19_147)
                         (= dst_reg_19_17 dst_reg_19_148)))
                (= if.else.i.i994.i_zext_32_to_64.exit.i_19_167
                   (and (= or.cond32_19_121 #b0) (= or.cond_19_57 #b1)))
                (= if.then.i.i993.i_zext_32_to_64.exit.i_19_168
                   (and (= or.cond32_19_121 #b1) (= or.cond_19_57 #b1)))))
      (a!3 (=> (and (= or.cond32_19_121 #b1) (= or.cond_19_57 #b1))
               (and (= sext_19_123 (bvshl or.i.i739.i_19_97 #x0000000000000020))
                    (= conv6.i.i.i_19_125
                       (bvashr sext_19_123 #x0000000000000020))
                    (= sext33_19_127
                       (bvshl or6.i.i746.i_19_101 #x0000000000000020))
                    (= conv8.i.i.i_19_129
                       (bvashr sext33_19_127 #x0000000000000020)))))
      (a!4 (=> (= or.cond_19_57 #b1)
               (and (= dst_reg_19_2 i11.i703.i_19_74)
                    (= dst_reg_19_3 i13.i705.i_19_75)
                    (= and.i.i.i706.i_19_77
                       (bvand i11.i703.i_19_74 #x00000000ffffffff))
                    (= and6.i.i.i707.i_19_79
                       (bvand i13.i705.i_19_75 #x00000000ffffffff))
                    (= i_19_83
                       (bvand src_reg1.sroa.57.0.copyload_19_41 #x000000ff))
                    (= sh_prom.i.i717.i_19_84 ((_ zero_extend 32) i_19_83))
                    (= shr.i.i718.i_19_85
                       (bvlshr and.i.i.i706.i_19_77 sh_prom.i.i717.i_19_84))
                    (= shr5.i.i719.i_19_86
                       (bvlshr and6.i.i.i707.i_19_79 sh_prom.i.i717.i_19_84))
                    (= dst_reg_19_10 i20.i722.i_19_87)
                    (= shr.i.i_19_88
                       (bvlshr i20.i722.i_19_87
                               src_reg1.sroa.65.0.copyload_19_42))
                    (= dst_reg_19_11 i21.i723.i_19_89)
                    (= shr5.i.i_19_90
                       (bvlshr i21.i723.i_19_89
                               src_reg1.sroa.57.0.copyload_19_41))
                    (= and.i.i738.i_19_96
                       (bvand shr5.i.i719.i_19_86 #x0000000080000000))
                    (= or.i.i739.i_19_97
                       (bvor and.i.i738.i_19_96 shr.i.i718.i_19_85))
                    (= conv.i.i740.i_19_98 ((_ extract 31 0) or.i.i739.i_19_97))
                    (= and5.i.i745.i_19_100
                       (bvand shr5.i.i719.i_19_86 #x000000007fffffff))
                    (= or6.i.i746.i_19_101
                       (bvor and5.i.i745.i_19_100 shr.i.i718.i_19_85))
                    (= conv7.i.i747.i_19_102
                       ((_ extract 31 0) or6.i.i746.i_19_101))
                    (= conv17.i.i752.i_19_103
                       ((_ extract 31 0) shr.i.i718.i_19_85))
                    (ite (bvugt shr.i.i_19_88 conv17.i.i752.i_19_103)
                         (= cmp19.i.i753.i_19_104 #b1)
                         (= cmp19.i.i753.i_19_104 #b0))
                    (ite (= cmp19.i.i753.i_19_104 #b1)
                         (= cond24.i.i754.i_19_105 shr.i.i_19_88)
                         (= cond24.i.i754.i_19_105 conv17.i.i752.i_19_103))
                    (= and.i.i.i.i732.i30_19_106
                       (bvor shr5.i.i719.i_19_86 shr.i.i718.i_19_85))
                    (= conv29.i.i758.i_19_107
                       ((_ extract 31 0) and.i.i.i.i732.i30_19_106))
                    (ite (bvult shr5.i.i_19_90 conv29.i.i758.i_19_107)
                         (= cmp31.i.i759.i_19_108 #b1)
                         (= cmp31.i.i759.i_19_108 #b0))
                    (ite (= cmp31.i.i759.i_19_108 #b1)
                         (= cond36.i.i760.i_19_109 shr5.i.i_19_90)
                         (= cond36.i.i760.i_19_109 conv29.i.i758.i_19_107))
                    (= and.i.i.i977.i_19_111
                       (bvand shr.i.i718.i_19_85 #x00000000ffffffff))
                    (= and6.i.i.i978.i_19_113
                       (bvand shr5.i.i719.i_19_86 #x00000000ffffffff))
                    (= conv.i.i983.i_19_114
                       ((_ zero_extend 32) cond24.i.i754.i_19_105))
                    (= conv1.i.i.i_19_115
                       ((_ zero_extend 32) cond36.i.i760.i_19_109))
                    (ite (bvsgt conv.i.i740.i_19_98 #xffffffff)
                         (= cmp.i.i.i990.i_19_117 #b1)
                         (= cmp.i.i.i990.i_19_117 #b0))
                    (ite (bvsgt conv7.i.i747.i_19_102 #xffffffff)
                         (= cmp.i1.i.i.i_19_119 #b1)
                         (= cmp.i1.i.i.i_19_119 #b0))
                    (ite (= cmp.i.i.i990.i_19_117 #b1)
                         (= or.cond32_19_121 cmp.i1.i.i.i_19_119)
                         (= or.cond32_19_121 #b0))))))
(let ((a!5 (and (=> a!1
                    (and (= src_reg_19_149 src_reg_19_189)
                         (= src_reg_19_150 src_reg_19_190)
                         (= src_reg_19_151 src_reg_19_191)
                         (= src_reg_19_152 src_reg_19_192)
                         (= src_reg_19_153 src_reg_19_193)
                         (= src_reg_19_154 src_reg_19_194)
                         (= src_reg_19_155 src_reg_19_195)
                         (= src_reg_19_156 src_reg_19_196)
                         (= src_reg_19_157 src_reg_19_197)
                         (= src_reg_19_158 src_reg_19_198)
                         (= src_reg_19_159 src_reg_19_199)
                         (= src_reg_19_160 src_reg_19_200)
                         (= src_reg_19_161 src_reg_19_201)
                         (= src_reg_19_162 src_reg_19_202)
                         (= src_reg_19_163 src_reg_19_203)
                         (= src_reg_19_164 src_reg_19_204)
                         (= src_reg_19_165 src_reg_19_205)
                         (= src_reg_19_166 src_reg_19_206)
                         (= dst_reg_19_131 dst_reg_19_171)
                         (= dst_reg_19_132 dst_reg_19_172)
                         (= dst_reg_19_133 dst_reg_19_173)
                         (= dst_reg_19_134 dst_reg_19_174)
                         (= dst_reg_19_135 dst_reg_19_175)
                         (= .sink.i.i995.i_19_169 dst_reg_19_176)
                         (= dst_reg_19_137 dst_reg_19_177)
                         (= dst_reg_19_138 dst_reg_19_178)
                         (= dst_reg_19_139 dst_reg_19_179)
                         (= dst_reg_19_140 dst_reg_19_180)
                         (= dst_reg_19_141 dst_reg_19_181)
                         (= dst_reg_19_142 dst_reg_19_182)
                         (= dst_reg_19_143 dst_reg_19_183)
                         (= dst_reg_19_144 dst_reg_19_184)
                         (= dst_reg_19_145 dst_reg_19_185)
                         (= dst_reg_19_146 dst_reg_19_186)
                         (= dst_reg_19_147 dst_reg_19_187)
                         (= dst_reg_19_148 dst_reg_19_188)))
                (=> (= or.cond_19_57 #b0)
                    (and (= #x00000001 src_reg_19_189)
                         (= src_reg_19_19 src_reg_19_190)
                         (= src_reg_19_20 src_reg_19_191)
                         (= src_reg_19_21 src_reg_19_192)
                         (= src_reg_19_22 src_reg_19_193)
                         (= src_reg_19_23 src_reg_19_194)
                         (= src_reg_19_24 src_reg_19_195)
                         (= src_reg_19_25 src_reg_19_196)
                         (= src_reg_19_26 src_reg_19_197)
                         (= src_reg_19_27 src_reg_19_198)
                         (= src_reg_19_28 src_reg_19_199)
                         (= src_reg_19_29 src_reg_19_200)
                         (= src_reg_19_30 src_reg_19_201)
                         (= src_reg_19_31 src_reg_19_202)
                         (= src_reg_19_32 src_reg_19_203)
                         (= src_reg_19_33 src_reg_19_204)
                         (= src_reg_19_34 src_reg_19_205)
                         (= src_reg_19_35 src_reg_19_206)
                         (= #x00000001 dst_reg_19_171)
                         (= dst_reg_19_1 dst_reg_19_172)
                         (= #x0000000000000000 dst_reg_19_173)
                         (= #xffffffffffffffff dst_reg_19_174)
                         (= #x8000000000000000 dst_reg_19_175)
                         (= #x7fffffffffffffff dst_reg_19_176)
                         (= #x0000000000000000 dst_reg_19_177)
                         (= #xffffffffffffffff dst_reg_19_178)
                         (= #x80000000 dst_reg_19_179)
                         (= #x7fffffff dst_reg_19_180)
                         (= #x00000000 dst_reg_19_181)
                         (= #xffffffff dst_reg_19_182)
                         (= #x00000000 dst_reg_19_183)
                         (= #x00000000 dst_reg_19_184)
                         (= #x00000000 dst_reg_19_185)
                         (= dst_reg_19_15 dst_reg_19_186)
                         (= dst_reg_19_16 dst_reg_19_187)
                         (= #x01 dst_reg_19_188)))
                (= dst_reg_19_171 dst_reg_19_207)
                (= dst_reg_19_172 dst_reg_19_208)
                (= dst_reg_19_173 dst_reg_19_209)
                (= dst_reg_19_174 dst_reg_19_210)
                (= dst_reg_19_175 dst_reg_19_211)
                (= dst_reg_19_176 dst_reg_19_212)
                (= dst_reg_19_177 dst_reg_19_213)
                (= dst_reg_19_178 dst_reg_19_214)
                (= dst_reg_19_179 dst_reg_19_215)
                (= dst_reg_19_180 dst_reg_19_216)
                (= dst_reg_19_181 dst_reg_19_217)
                (= dst_reg_19_182 dst_reg_19_218)
                (= dst_reg_19_183 dst_reg_19_219)
                (= dst_reg_19_184 dst_reg_19_220)
                (= dst_reg_19_185 dst_reg_19_221)
                (= dst_reg_19_186 dst_reg_19_222)
                (= dst_reg_19_187 dst_reg_19_223)
                (= dst_reg_19_188 dst_reg_19_224)
                (= src_reg_19_189 src_reg_19_225)
                (= src_reg_19_190 src_reg_19_226)
                (= src_reg_19_191 src_reg_19_227)
                (= src_reg_19_192 src_reg_19_228)
                (= src_reg_19_193 src_reg_19_229)
                (= src_reg_19_194 src_reg_19_230)
                (= src_reg_19_195 src_reg_19_231)
                (= src_reg_19_196 src_reg_19_232)
                (= src_reg_19_197 src_reg_19_233)
                (= src_reg_19_198 src_reg_19_234)
                (= src_reg_19_199 src_reg_19_235)
                (= src_reg_19_200 src_reg_19_236)
                (= src_reg_19_201 src_reg_19_237)
                (= src_reg_19_202 src_reg_19_238)
                (= src_reg_19_203 src_reg_19_239)
                (= src_reg_19_204 src_reg_19_240)
                (= src_reg_19_205 src_reg_19_241)
                (= src_reg_19_206 src_reg_19_242))))
  (and (=> a!1 a!2)
       a!3
       a!4
       (=> (or a!1 (= or.cond_19_57 #b0)) a!5)
       (= dst_reg_19_0 dst_reg_19_0)
       (= dst_reg_19_1 dst_reg_19_1)
       (= dst_reg_19_2 dst_reg_19_2)
       (= dst_reg_19_3 dst_reg_19_3)
       (= dst_reg_19_4 dst_reg_19_4)
       (= dst_reg_19_5 dst_reg_19_5)
       (= dst_reg_19_6 dst_reg_19_6)
       (= dst_reg_19_7 dst_reg_19_7)
       (= dst_reg_19_8 dst_reg_19_8)
       (= dst_reg_19_9 dst_reg_19_9)
       (= dst_reg_19_10 dst_reg_19_10)
       (= dst_reg_19_11 dst_reg_19_11)
       (= dst_reg_19_12 dst_reg_19_12)
       (= dst_reg_19_13 dst_reg_19_13)
       (= dst_reg_19_14 dst_reg_19_14)
       (= dst_reg_19_15 dst_reg_19_15)
       (= dst_reg_19_16 dst_reg_19_16)
       (= dst_reg_19_17 dst_reg_19_17)
       (= src_reg_19_18 src_reg_19_18)
       (= src_reg_19_19 src_reg_19_19)
       (= src_reg_19_20 src_reg_19_20)
       (= src_reg_19_21 src_reg_19_21)
       (= src_reg_19_22 src_reg_19_22)
       (= src_reg_19_23 src_reg_19_23)
       (= src_reg_19_24 src_reg_19_24)
       (= src_reg_19_25 src_reg_19_25)
       (= src_reg_19_26 src_reg_19_26)
       (= src_reg_19_27 src_reg_19_27)
       (= src_reg_19_28 src_reg_19_28)
       (= src_reg_19_29 src_reg_19_29)
       (= src_reg_19_30 src_reg_19_30)
       (= src_reg_19_31 src_reg_19_31)
       (= src_reg_19_32 src_reg_19_32)
       (= src_reg_19_33 src_reg_19_33)
       (= src_reg_19_34 src_reg_19_34)
       (= src_reg_19_35 src_reg_19_35)
       (= src_reg_19_25 src_reg1.sroa.42.0.copyload_19_38)
       (= src_reg_19_26 src_reg1.sroa.50.0.copyload_19_39)
       (= src_reg_19_27 src_reg1.sroa.54.0.copyload_19_40)
       (= src_reg_19_28 src_reg1.sroa.57.0.copyload_19_41)
       (= src_reg_19_29 src_reg1.sroa.65.0.copyload_19_42)
       (= src_reg_19_21 src_reg1.sroa.13.0.copyload_19_43)
       (= and6.i.i.i.i.i_19_45
          (bvand src_reg1.sroa.13.0.copyload_19_43 #x00000000ffffffff))
       (ite (= and6.i.i.i.i.i_19_45 #x0000000000000000)
            (= tobool.not.i.i.i_19_47 #b1)
            (= tobool.not.i.i.i_19_47 #b0))
       (ite (= src_reg1.sroa.50.0.copyload_19_39
               src_reg1.sroa.54.0.copyload_19_40)
            (= cmp6.i.i_19_48 #b1)
            (= cmp6.i.i_19_48 #b0))
       (ite (= tobool.not.i.i.i_19_47 #b1)
            (= or.cond31_19_50 cmp6.i.i_19_48)
            (= or.cond31_19_50 #b0))
       (ite (= src_reg1.sroa.57.0.copyload_19_41
               src_reg1.sroa.65.0.copyload_19_42)
            (= cmp9.i.i_19_51 #b1)
            (= cmp9.i.i_19_51 #b0))
       (ite (= or.cond31_19_50 #b1)
            (= spec.select_19_53 cmp9.i.i_19_51)
            (= spec.select_19_53 #b0))
       (ite (bvult src_reg1.sroa.42.0.copyload_19_38 #x0000000000000020)
            (= cmp30.i.i_19_55 #b1)
            (= cmp30.i.i_19_55 #b0))
       (ite (= spec.select_19_53 #b1)
            (= or.cond_19_57 cmp30.i.i_19_55)
            (= or.cond_19_57 #b0))))))

;{"dst_reg":["dst_reg_19_0","dst_reg_19_1",[""],["dst_reg_19_2","dst_reg_19_3"],"dst_reg_19_4","dst_reg_19_5","dst_reg_19_6","dst_reg_19_7","dst_reg_19_8","dst_reg_19_9","dst_reg_19_10","dst_reg_19_11","dst_reg_19_12","dst_reg_19_13","","","dst_reg_19_14","dst_reg_19_15","dst_reg_19_16"],"src_reg":["src_reg_19_18","src_reg_19_19",[""],["src_reg_19_20","src_reg_19_21"],"src_reg_19_22","src_reg_19_23","src_reg_19_24","src_reg_19_25","src_reg_19_26","src_reg_19_27","src_reg_19_28","src_reg_19_29","src_reg_19_30","src_reg_19_31","","","src_reg_19_32","src_reg_19_33","src_reg_19_34"]}
;{"dst_reg":["dst_reg_19_207","dst_reg_19_208",[""],["dst_reg_19_209","dst_reg_19_210"],"dst_reg_19_211","dst_reg_19_212","dst_reg_19_213","dst_reg_19_214","dst_reg_19_215","dst_reg_19_216","dst_reg_19_217","dst_reg_19_218","dst_reg_19_219","dst_reg_19_220","","","dst_reg_19_221","dst_reg_19_222","dst_reg_19_223"],"src_reg":["src_reg_19_225","src_reg_19_226",[""],["src_reg_19_227","src_reg_19_228"],"src_reg_19_229","src_reg_19_230","src_reg_19_231","src_reg_19_232","src_reg_19_233","src_reg_19_234","src_reg_19_235","src_reg_19_236","src_reg_19_237","src_reg_19_238","","","src_reg_19_239","src_reg_19_240","src_reg_19_241"]}
